
  24    0


   0  13 2 3 4 5 6 8 9 10 11 12 21 22 23 
   2   5 20 19 18 14 7 
  10   3 17 16 13 
   7   3 15 14 13 
   4   2 14 7 
   3   1 7 
  10   1 13 
   4   1 13 
   5   1 13 
   3   1 13 
   1   1 13 
   1   1 13 
  10   1 24
   8   1 24
   7   1 24
   8   1 24
  10   1 24
  10   1 24
   3   1 24
  10   1 24
   9   1 24
   7   1 24
   6   1 24
   0   0 
